(set-logic QF_BV)
(define-fun implies ((p Bool) (q Bool)) Bool (or (not p) q))

(declare-const SPL Bool)
(declare-const ConcurrTrans Bool)
(declare-const Latches Bool)
(declare-const Transactions Bool)
(declare-const CheckLeaks Bool)
(declare-const FSync Bool)
(declare-const Persistance Bool)
(declare-const IIO Bool)
(declare-const OldIO Bool)
(declare-const IO Bool)
(declare-const SynchronizedIO Bool)
(declare-const NewIO Bool)
(declare-const NIOAccess Bool)
(declare-const ChunkedNIO Bool)
(declare-const NIO Bool)
(declare-const DirectNIO Bool)
(declare-const Checkpointer Bool)
(declare-const CPBytes Bool)
(declare-const CPTime Bool)
(declare-const CheckpointerDaemon Bool)
(declare-const IICleaner Bool)
(declare-const Cleaner Bool)
(declare-const CleanerDaemon Bool)
(declare-const LookAHEADCache Bool)
(declare-const Checksum Bool)
(declare-const EnvironmentLocking Bool)
(declare-const DiskFullErro Bool)
(declare-const FileHandleCache Bool)
(declare-const BTree Bool)
(declare-const INCompressor Bool)
(declare-const IEvictor Bool)
(declare-const Evictor Bool)
(declare-const CriticalEviction Bool)
(declare-const EvictorDaemon Bool)
(declare-const Verifier Bool)
(declare-const Ops Bool)
(declare-const DeleteOp Bool)
(declare-const RenameOp Bool)
(declare-const TruncateOp Bool)
(declare-const Derivatives Bool)
(declare-const Derivative_LoggingEvictor_Statistics_Evictor_LoggingBase Bool)
(declare-const Derivative_LoggingEvictor_Evictor_MemoryBudget_LoggingBase Bool)
(declare-const Derivative_LoggingInfo_Statistics_Verifier Bool)
(declare-const Derivative_Latches_Statistics_Verifier Bool)
(declare-const Derivative_Latches_Verifier_INCompressor Bool)
(declare-const Derivative_Statistics_Verifier_INCompressor Bool)
(declare-const Derivative_Statistics_Verifier_DeleteOp Bool)
(declare-const Derivative_LookAHEADCache_Evictor_CriticalEviction Bool)
(declare-const Derivative_INCompressor_Evictor_CriticalEviction Bool)
(declare-const Derivative_Evictor_MemoryBudget_CriticalEviction Bool)
(declare-const Derivative_LoggingEvictor_Evictor_LoggingBase Bool)
(declare-const Derivative_FSync_Latches Bool)
(declare-const Derivative_NIO_ChunkedNIO Bool)
(declare-const Derivative_IO_SynchronizedIO Bool)
(declare-const Derivative_LoggingConfig_Statistics Bool)
(declare-const Derivative_FSync_Statistics Bool)
(declare-const Derivative_LookAHEADCache_Statistics Bool)
(declare-const Derivative_Latches_Statistics Bool)
(declare-const Derivative_Latches_CheckLeaks Bool)
(declare-const Derivative_Statistics_CheckLeaks Bool)
(declare-const Derivative_Statistics_Verifier Bool)
(declare-const Derivative_LoggingFinest_CPBytes Bool)
(declare-const Derivative_CheckpointerDaemon_CPBytes Bool)
(declare-const Derivative_LoggingFinest_CPTime Bool)
(declare-const Derivative_CPBytes_CPTime Bool)
(declare-const Derivative_LoggingFine_INCompressor Bool)
(declare-const Derivative_Latches_INCompressor Bool)
(declare-const Derivative_Statistics_INCompressor Bool)
(declare-const Derivative_Verifier_INCompressor Bool)
(declare-const Derivative_LoggingCleaner_DeleteOp Bool)
(declare-const Derivative_Latches_DeleteOp Bool)
(declare-const Derivative_Statistics_DeleteOp Bool)
(declare-const Derivative_INCompressor_DeleteOp Bool)
(declare-const Derivative_LoggingFinest_TruncateOp Bool)
(declare-const Derivative_Latches_TruncateOp Bool)
(declare-const Derivative_DeleteOp_TruncateOp Bool)
(declare-const Derivative_Latches_RenameOp Bool)
(declare-const Derivative_LoggingEvictor_Evictor Bool)
(declare-const Derivative_Latches_Evictor Bool)
(declare-const Derivative_Statistics_Evictor Bool)
(declare-const Derivative_INCompressor_Evictor Bool)
(declare-const Derivative_DeleteOp_Evictor Bool)
(declare-const Derivative_LoggingInfo_MemoryBudget Bool)
(declare-const Derivative_LookAHEADCache_MemoryBudget Bool)
(declare-const Derivative_Latches_MemoryBudget Bool)
(declare-const Derivative_Statistics_MemoryBudget Bool)
(declare-const Derivative_DeleteOp_MemoryBudget Bool)
(declare-const Derivative_Evictor_MemoryBudget Bool)
(declare-const Derivative_Evictor_CriticalEviction Bool)
(declare-const Derivative_Evictor_EvictorDaemon Bool)
(declare-const Derivative_Latches_FileHandleCache Bool)
(declare-const Derivative_LoggingSevere_EnvironmentLocking Bool)
(declare-const Derivative_LoggingFinest_LoggingBase Bool)
(declare-const Derivative_LoggingFiner_LoggingBase Bool)
(declare-const Derivative_LoggingFine_LoggingBase Bool)
(declare-const Derivative_LoggingSevere_LoggingBase Bool)
(declare-const Derivative_LoggingRecovery_LoggingBase Bool)
(declare-const Derivative_LoggingCleaner_LoggingBase Bool)
(declare-const Derivative_LoggingFileHandler_LoggingBase Bool)
(declare-const Derivative_LoggingDbLogHandler_LoggingBase Bool)
(declare-const Derivative_LoggingConsoleHandler_LoggingBase Bool)
(declare-const Logging Bool)
(declare-const LoggingBase Bool)
(declare-const LoggingFiner Bool)
(declare-const LoggingConfig Bool)
(declare-const LoggingSevere Bool)
(declare-const LoggingEvictor Bool)
(declare-const LoggingCleaner Bool)
(declare-const LoggingRecovery Bool)
(declare-const LoggingDbLogHandler Bool)
(declare-const LoggingConsoleHandler Bool)
(declare-const LoggingInfo Bool)
(declare-const LoggingFileHandler Bool)
(declare-const LoggingFine Bool)
(declare-const LoggingFinest Bool)
(declare-const Statistics Bool)
(declare-const MemoryBudget Bool)
(assert
(and SPL(and(implies Latches ConcurrTrans)
(implies Transactions ConcurrTrans)
(implies CheckLeaks ConcurrTrans)
(implies FSync ConcurrTrans)
(= IO OldIO)
(implies SynchronizedIO OldIO)
(and(implies(or ChunkedNIO NIO)
 NIOAccess)
(implies NIOAccess(or(and ChunkedNIO(not NIO))
(and(not ChunkedNIO)
 NIO))))
(= NIOAccess NewIO)
(implies DirectNIO NewIO)
(and(implies(or OldIO NewIO)
 IIO)
(implies IIO(or(and OldIO(not NewIO))
(and(not OldIO)
 NewIO))))
(and(implies CPBytes Checkpointer)
(implies CPTime Checkpointer)
(implies CheckpointerDaemon Checkpointer))
(= Cleaner IICleaner)
(and(implies CleanerDaemon IICleaner)
(implies LookAHEADCache IICleaner))
(and(= IIO Persistance)
(= Checkpointer Persistance)
(= IICleaner Persistance))
(and(implies Checksum Persistance)
(implies EnvironmentLocking Persistance)
(implies DiskFullErro Persistance)
(implies FileHandleCache Persistance))
(= Evictor IEvictor)
(and(implies CriticalEviction IEvictor)
(implies EvictorDaemon IEvictor))
(and(implies INCompressor BTree)
(implies IEvictor BTree)
(implies Verifier BTree))
(and(implies DeleteOp Ops)
(implies RenameOp Ops)
(implies TruncateOp Ops))
(=(or Derivative_LoggingEvictor_Statistics_Evictor_LoggingBase Derivative_LoggingEvictor_Evictor_MemoryBudget_LoggingBase Derivative_LoggingInfo_Statistics_Verifier Derivative_Latches_Statistics_Verifier Derivative_Latches_Verifier_INCompressor Derivative_Statistics_Verifier_INCompressor Derivative_Statistics_Verifier_DeleteOp Derivative_LookAHEADCache_Evictor_CriticalEviction Derivative_INCompressor_Evictor_CriticalEviction Derivative_Evictor_MemoryBudget_CriticalEviction Derivative_LoggingEvictor_Evictor_LoggingBase Derivative_FSync_Latches Derivative_NIO_ChunkedNIO Derivative_IO_SynchronizedIO Derivative_LoggingConfig_Statistics Derivative_FSync_Statistics Derivative_LookAHEADCache_Statistics Derivative_Latches_Statistics Derivative_Latches_CheckLeaks Derivative_Statistics_CheckLeaks Derivative_Statistics_Verifier Derivative_LoggingFinest_CPBytes Derivative_CheckpointerDaemon_CPBytes Derivative_LoggingFinest_CPTime Derivative_CPBytes_CPTime Derivative_LoggingFine_INCompressor Derivative_Latches_INCompressor Derivative_Statistics_INCompressor Derivative_Verifier_INCompressor Derivative_LoggingCleaner_DeleteOp Derivative_Latches_DeleteOp Derivative_Statistics_DeleteOp Derivative_INCompressor_DeleteOp Derivative_LoggingFinest_TruncateOp Derivative_Latches_TruncateOp Derivative_DeleteOp_TruncateOp Derivative_Latches_RenameOp Derivative_LoggingEvictor_Evictor Derivative_Latches_Evictor Derivative_Statistics_Evictor Derivative_INCompressor_Evictor Derivative_DeleteOp_Evictor Derivative_LoggingInfo_MemoryBudget Derivative_LookAHEADCache_MemoryBudget Derivative_Latches_MemoryBudget Derivative_Statistics_MemoryBudget Derivative_DeleteOp_MemoryBudget Derivative_Evictor_MemoryBudget Derivative_Evictor_CriticalEviction Derivative_Evictor_EvictorDaemon Derivative_Latches_FileHandleCache Derivative_LoggingSevere_EnvironmentLocking Derivative_LoggingFinest_LoggingBase Derivative_LoggingFiner_LoggingBase Derivative_LoggingFine_LoggingBase Derivative_LoggingSevere_LoggingBase Derivative_LoggingRecovery_LoggingBase Derivative_LoggingCleaner_LoggingBase Derivative_LoggingFileHandler_LoggingBase Derivative_LoggingDbLogHandler_LoggingBase Derivative_LoggingConsoleHandler_LoggingBase)
 Derivatives)
(and(= ConcurrTrans SPL)
(= Persistance SPL)
(= BTree SPL)
(= Ops SPL)
(= Derivatives SPL))
(= LoggingBase Logging)
(and(implies LoggingFiner Logging)
(implies LoggingConfig Logging)
(implies LoggingSevere Logging)
(implies LoggingEvictor Logging)
(implies LoggingCleaner Logging)
(implies LoggingRecovery Logging)
(implies LoggingDbLogHandler Logging)
(implies LoggingConsoleHandler Logging)
(implies LoggingInfo Logging)
(implies LoggingFileHandler Logging)
(implies LoggingFine Logging)
(implies LoggingFinest Logging))
(and(implies Logging SPL)
(implies Statistics SPL)
(implies MemoryBudget SPL)))
(and(or(not Evictor)
 MemoryBudget)
(or(not EvictorDaemon)
 MemoryBudget)
(or(not LookAHEADCache)
 MemoryBudget)
(or(not CriticalEviction)
 INCompressor)
(or(not CPBytes)
 CPTime)
(or(not DeleteOp)
 Evictor)
(or(not DeleteOp)
 INCompressor)
(or(not DeleteOp)
 MemoryBudget)
(or(not MemoryBudget)
 Evictor)
(or(not MemoryBudget)
 Latches)
(or(not TruncateOp)
 DeleteOp)
(or(not Verifier)
 INCompressor)
(or(not Derivative_LoggingEvictor_Statistics_Evictor_LoggingBase)
 LoggingBase)
(or(not Derivative_LoggingEvictor_Statistics_Evictor_LoggingBase)
 Evictor)
(or(not Derivative_LoggingEvictor_Statistics_Evictor_LoggingBase)
 Statistics)
(or(not Derivative_LoggingEvictor_Statistics_Evictor_LoggingBase)
 LoggingEvictor)
(or(not LoggingBase)
 Derivative_LoggingEvictor_Statistics_Evictor_LoggingBase)
(or(not Evictor)
 Derivative_LoggingEvictor_Statistics_Evictor_LoggingBase)
(or(not Statistics)
 Derivative_LoggingEvictor_Statistics_Evictor_LoggingBase)
(or(not LoggingEvictor)
 Derivative_LoggingEvictor_Statistics_Evictor_LoggingBase)
(or(not Derivative_LoggingEvictor_Evictor_MemoryBudget_LoggingBase)
 LoggingBase)
(or(not Derivative_LoggingEvictor_Evictor_MemoryBudget_LoggingBase)
 Evictor)
(or(not Derivative_LoggingEvictor_Evictor_MemoryBudget_LoggingBase)
 LoggingEvictor)
(or(not Derivative_LoggingEvictor_Evictor_MemoryBudget_LoggingBase)
 MemoryBudget)
(or(not LoggingBase)
 Derivative_LoggingEvictor_Evictor_MemoryBudget_LoggingBase)
(or(not Evictor)
 Derivative_LoggingEvictor_Evictor_MemoryBudget_LoggingBase)
(or(not LoggingEvictor)
 Derivative_LoggingEvictor_Evictor_MemoryBudget_LoggingBase)
(or(not MemoryBudget)
 Derivative_LoggingEvictor_Evictor_MemoryBudget_LoggingBase)
(or(not Derivative_LoggingInfo_Statistics_Verifier)
 Verifier)
(or(not Derivative_LoggingInfo_Statistics_Verifier)
 LoggingInfo)
(or(not Derivative_LoggingInfo_Statistics_Verifier)
 Statistics)
(or(not Verifier)
 Derivative_LoggingInfo_Statistics_Verifier)
(or(not LoggingInfo)
 Derivative_LoggingInfo_Statistics_Verifier)
(or(not Statistics)
 Derivative_LoggingInfo_Statistics_Verifier)
(or(not Derivative_Latches_Statistics_Verifier)
 Latches)
(or(not Derivative_Latches_Statistics_Verifier)
 Verifier)
(or(not Derivative_Latches_Statistics_Verifier)
 Statistics)
(or(not Latches)
 Derivative_Latches_Statistics_Verifier)
(or(not Verifier)
 Derivative_Latches_Statistics_Verifier)
(or(not Statistics)
 Derivative_Latches_Statistics_Verifier)
(or(not Derivative_Latches_Verifier_INCompressor)
 Latches)
(or(not Derivative_Latches_Verifier_INCompressor)
 INCompressor)
(or(not Derivative_Latches_Verifier_INCompressor)
 Verifier)
(or(not Latches)
 Derivative_Latches_Verifier_INCompressor)
(or(not INCompressor)
 Derivative_Latches_Verifier_INCompressor)
(or(not Verifier)
 Derivative_Latches_Verifier_INCompressor)
(or(not Derivative_Statistics_Verifier_INCompressor)
 INCompressor)
(or(not Derivative_Statistics_Verifier_INCompressor)
 Verifier)
(or(not Derivative_Statistics_Verifier_INCompressor)
 Statistics)
(or(not INCompressor)
 Derivative_Statistics_Verifier_INCompressor)
(or(not Verifier)
 Derivative_Statistics_Verifier_INCompressor)
(or(not Statistics)
 Derivative_Statistics_Verifier_INCompressor)
(or(not Derivative_Statistics_Verifier_DeleteOp)
 Verifier)
(or(not Derivative_Statistics_Verifier_DeleteOp)
 Statistics)
(or(not Derivative_Statistics_Verifier_DeleteOp)
 DeleteOp)
(or(not Verifier)
 Derivative_Statistics_Verifier_DeleteOp)
(or(not Statistics)
 Derivative_Statistics_Verifier_DeleteOp)
(or(not DeleteOp)
 Derivative_Statistics_Verifier_DeleteOp)
(or(not Derivative_LookAHEADCache_Evictor_CriticalEviction)
 Evictor)
(or(not Derivative_LookAHEADCache_Evictor_CriticalEviction)
 LookAHEADCache)
(or(not Derivative_LookAHEADCache_Evictor_CriticalEviction)
 CriticalEviction)
(or(not Evictor)
 Derivative_LookAHEADCache_Evictor_CriticalEviction)
(or(not LookAHEADCache)
 Derivative_LookAHEADCache_Evictor_CriticalEviction)
(or(not CriticalEviction)
 Derivative_LookAHEADCache_Evictor_CriticalEviction)
(or(not Derivative_INCompressor_Evictor_CriticalEviction)
 INCompressor)
(or(not Derivative_INCompressor_Evictor_CriticalEviction)
 Evictor)
(or(not Derivative_INCompressor_Evictor_CriticalEviction)
 CriticalEviction)
(or(not INCompressor)
 Derivative_INCompressor_Evictor_CriticalEviction)
(or(not Evictor)
 Derivative_INCompressor_Evictor_CriticalEviction)
(or(not CriticalEviction)
 Derivative_INCompressor_Evictor_CriticalEviction)
(or(not Derivative_Evictor_MemoryBudget_CriticalEviction)
 Evictor)
(or(not Derivative_Evictor_MemoryBudget_CriticalEviction)
 CriticalEviction)
(or(not Derivative_Evictor_MemoryBudget_CriticalEviction)
 MemoryBudget)
(or(not Evictor)
 Derivative_Evictor_MemoryBudget_CriticalEviction)
(or(not CriticalEviction)
 Derivative_Evictor_MemoryBudget_CriticalEviction)
(or(not MemoryBudget)
 Derivative_Evictor_MemoryBudget_CriticalEviction)
(or(not Derivative_LoggingEvictor_Evictor_LoggingBase)
 LoggingBase)
(or(not Derivative_LoggingEvictor_Evictor_LoggingBase)
 Evictor)
(or(not Derivative_LoggingEvictor_Evictor_LoggingBase)
 LoggingEvictor)
(or(not LoggingBase)
 Derivative_LoggingEvictor_Evictor_LoggingBase)
(or(not Evictor)
 Derivative_LoggingEvictor_Evictor_LoggingBase)
(or(not LoggingEvictor)
 Derivative_LoggingEvictor_Evictor_LoggingBase)
(or(not Derivative_FSync_Latches)
 Latches)
(or(not Derivative_FSync_Latches)
 FSync)
(or(not Latches)
 Derivative_FSync_Latches)
(or(not FSync)
 Derivative_FSync_Latches)
(or(not Derivative_NIO_ChunkedNIO)
 ChunkedNIO)
(or(not Derivative_NIO_ChunkedNIO)
 NIO)
(or(not ChunkedNIO)
 Derivative_NIO_ChunkedNIO)
(or(not NIO)
 Derivative_NIO_ChunkedNIO)
(or(not Derivative_IO_SynchronizedIO)
 IO)
(or(not Derivative_IO_SynchronizedIO)
 SynchronizedIO)
(or(not IO)
 Derivative_IO_SynchronizedIO)
(or(not SynchronizedIO)
 Derivative_IO_SynchronizedIO)
(or(not Derivative_LoggingConfig_Statistics)
 LoggingConfig)
(or(not Derivative_LoggingConfig_Statistics)
 Statistics)
(or(not LoggingConfig)
 Derivative_LoggingConfig_Statistics)
(or(not Statistics)
 Derivative_LoggingConfig_Statistics)
(or(not Derivative_FSync_Statistics)
 FSync)
(or(not Derivative_FSync_Statistics)
 Statistics)
(or(not FSync)
 Derivative_FSync_Statistics)
(or(not Statistics)
 Derivative_FSync_Statistics)
(or(not Derivative_LookAHEADCache_Statistics)
 LookAHEADCache)
(or(not Derivative_LookAHEADCache_Statistics)
 Statistics)
(or(not LookAHEADCache)
 Derivative_LookAHEADCache_Statistics)
(or(not Statistics)
 Derivative_LookAHEADCache_Statistics)
(or(not Derivative_Latches_Statistics)
 Latches)
(or(not Derivative_Latches_Statistics)
 Statistics)
(or(not Latches)
 Derivative_Latches_Statistics)
(or(not Statistics)
 Derivative_Latches_Statistics)
(or(not Derivative_Latches_CheckLeaks)
 Latches)
(or(not Derivative_Latches_CheckLeaks)
 CheckLeaks)
(or(not Latches)
 Derivative_Latches_CheckLeaks)
(or(not CheckLeaks)
 Derivative_Latches_CheckLeaks)
(or(not Derivative_Statistics_CheckLeaks)
 CheckLeaks)
(or(not Derivative_Statistics_CheckLeaks)
 Statistics)
(or(not CheckLeaks)
 Derivative_Statistics_CheckLeaks)
(or(not Statistics)
 Derivative_Statistics_CheckLeaks)
(or(not Derivative_Statistics_Verifier)
 Verifier)
(or(not Derivative_Statistics_Verifier)
 Statistics)
(or(not Verifier)
 Derivative_Statistics_Verifier)
(or(not Statistics)
 Derivative_Statistics_Verifier)
(or(not Derivative_LoggingFinest_CPBytes)
 CPBytes)
(or(not Derivative_LoggingFinest_CPBytes)
 LoggingFinest)
(or(not CPBytes)
 Derivative_LoggingFinest_CPBytes)
(or(not LoggingFinest)
 Derivative_LoggingFinest_CPBytes)
(or(not Derivative_CheckpointerDaemon_CPBytes)
 CPBytes)
(or(not Derivative_CheckpointerDaemon_CPBytes)
 CheckpointerDaemon)
(or(not CPBytes)
 Derivative_CheckpointerDaemon_CPBytes)
(or(not CheckpointerDaemon)
 Derivative_CheckpointerDaemon_CPBytes)
(or(not Derivative_LoggingFinest_CPTime)
 LoggingFinest)
(or(not Derivative_LoggingFinest_CPTime)
 CPTime)
(or(not LoggingFinest)
 Derivative_LoggingFinest_CPTime)
(or(not CPTime)
 Derivative_LoggingFinest_CPTime)
(or(not Derivative_CPBytes_CPTime)
 CPBytes)
(or(not Derivative_CPBytes_CPTime)
 CPTime)
(or(not CPBytes)
 Derivative_CPBytes_CPTime)
(or(not CPTime)
 Derivative_CPBytes_CPTime)
(or(not Derivative_LoggingFine_INCompressor)
 INCompressor)
(or(not Derivative_LoggingFine_INCompressor)
 LoggingFine)
(or(not INCompressor)
 Derivative_LoggingFine_INCompressor)
(or(not LoggingFine)
 Derivative_LoggingFine_INCompressor)
(or(not Derivative_Latches_INCompressor)
 Latches)
(or(not Derivative_Latches_INCompressor)
 INCompressor)
(or(not Latches)
 Derivative_Latches_INCompressor)
(or(not INCompressor)
 Derivative_Latches_INCompressor)
(or(not Derivative_Statistics_INCompressor)
 INCompressor)
(or(not Derivative_Statistics_INCompressor)
 Statistics)
(or(not INCompressor)
 Derivative_Statistics_INCompressor)
(or(not Statistics)
 Derivative_Statistics_INCompressor)
(or(not Derivative_Verifier_INCompressor)
 INCompressor)
(or(not Derivative_Verifier_INCompressor)
 Verifier)
(or(not INCompressor)
 Derivative_Verifier_INCompressor)
(or(not Verifier)
 Derivative_Verifier_INCompressor)
(or(not Derivative_LoggingCleaner_DeleteOp)
 LoggingCleaner)
(or(not Derivative_LoggingCleaner_DeleteOp)
 DeleteOp)
(or(not LoggingCleaner)
 Derivative_LoggingCleaner_DeleteOp)
(or(not DeleteOp)
 Derivative_LoggingCleaner_DeleteOp)
(or(not Derivative_Latches_DeleteOp)
 Latches)
(or(not Derivative_Latches_DeleteOp)
 DeleteOp)
(or(not Latches)
 Derivative_Latches_DeleteOp)
(or(not DeleteOp)
 Derivative_Latches_DeleteOp)
(or(not Derivative_Statistics_DeleteOp)
 Statistics)
(or(not Derivative_Statistics_DeleteOp)
 DeleteOp)
(or(not Statistics)
 Derivative_Statistics_DeleteOp)
(or(not DeleteOp)
 Derivative_Statistics_DeleteOp)
(or(not Derivative_INCompressor_DeleteOp)
 INCompressor)
(or(not Derivative_INCompressor_DeleteOp)
 DeleteOp)
(or(not INCompressor)
 Derivative_INCompressor_DeleteOp)
(or(not DeleteOp)
 Derivative_INCompressor_DeleteOp)
(or(not Derivative_LoggingFinest_TruncateOp)
 LoggingFinest)
(or(not Derivative_LoggingFinest_TruncateOp)
 TruncateOp)
(or(not LoggingFinest)
 Derivative_LoggingFinest_TruncateOp)
(or(not TruncateOp)
 Derivative_LoggingFinest_TruncateOp)
(or(not Derivative_Latches_TruncateOp)
 Latches)
(or(not Derivative_Latches_TruncateOp)
 TruncateOp)
(or(not Latches)
 Derivative_Latches_TruncateOp)
(or(not TruncateOp)
 Derivative_Latches_TruncateOp)
(or(not Derivative_DeleteOp_TruncateOp)
 TruncateOp)
(or(not Derivative_DeleteOp_TruncateOp)
 DeleteOp)
(or(not TruncateOp)
 Derivative_DeleteOp_TruncateOp)
(or(not DeleteOp)
 Derivative_DeleteOp_TruncateOp)
(or(not Derivative_Latches_RenameOp)
 Latches)
(or(not Derivative_Latches_RenameOp)
 RenameOp)
(or(not Latches)
 Derivative_Latches_RenameOp)
(or(not RenameOp)
 Derivative_Latches_RenameOp)
(or(not Derivative_LoggingEvictor_Evictor)
 Evictor)
(or(not Derivative_LoggingEvictor_Evictor)
 LoggingEvictor)
(or(not Evictor)
 Derivative_LoggingEvictor_Evictor)
(or(not LoggingEvictor)
 Derivative_LoggingEvictor_Evictor)
(or(not Derivative_Latches_Evictor)
 Latches)
(or(not Derivative_Latches_Evictor)
 Evictor)
(or(not Latches)
 Derivative_Latches_Evictor)
(or(not Evictor)
 Derivative_Latches_Evictor)
(or(not Derivative_Statistics_Evictor)
 Evictor)
(or(not Derivative_Statistics_Evictor)
 Statistics)
(or(not Evictor)
 Derivative_Statistics_Evictor)
(or(not Statistics)
 Derivative_Statistics_Evictor)
(or(not Derivative_INCompressor_Evictor)
 INCompressor)
(or(not Derivative_INCompressor_Evictor)
 Evictor)
(or(not INCompressor)
 Derivative_INCompressor_Evictor)
(or(not Evictor)
 Derivative_INCompressor_Evictor)
(or(not Derivative_DeleteOp_Evictor)
 Evictor)
(or(not Derivative_DeleteOp_Evictor)
 DeleteOp)
(or(not Evictor)
 Derivative_DeleteOp_Evictor)
(or(not DeleteOp)
 Derivative_DeleteOp_Evictor)
(or(not Derivative_LoggingInfo_MemoryBudget)
 LoggingInfo)
(or(not Derivative_LoggingInfo_MemoryBudget)
 MemoryBudget)
(or(not LoggingInfo)
 Derivative_LoggingInfo_MemoryBudget)
(or(not MemoryBudget)
 Derivative_LoggingInfo_MemoryBudget)
(or(not Derivative_LookAHEADCache_MemoryBudget)
 LookAHEADCache)
(or(not Derivative_LookAHEADCache_MemoryBudget)
 MemoryBudget)
(or(not LookAHEADCache)
 Derivative_LookAHEADCache_MemoryBudget)
(or(not MemoryBudget)
 Derivative_LookAHEADCache_MemoryBudget)
(or(not Derivative_Latches_MemoryBudget)
 Latches)
(or(not Derivative_Latches_MemoryBudget)
 MemoryBudget)
(or(not Latches)
 Derivative_Latches_MemoryBudget)
(or(not MemoryBudget)
 Derivative_Latches_MemoryBudget)
(or(not Derivative_Statistics_MemoryBudget)
 Statistics)
(or(not Derivative_Statistics_MemoryBudget)
 MemoryBudget)
(or(not Statistics)
 Derivative_Statistics_MemoryBudget)
(or(not MemoryBudget)
 Derivative_Statistics_MemoryBudget)
(or(not Derivative_DeleteOp_MemoryBudget)
 DeleteOp)
(or(not Derivative_DeleteOp_MemoryBudget)
 MemoryBudget)
(or(not DeleteOp)
 Derivative_DeleteOp_MemoryBudget)
(or(not MemoryBudget)
 Derivative_DeleteOp_MemoryBudget)
(or(not Derivative_Evictor_MemoryBudget)
 Evictor)
(or(not Derivative_Evictor_MemoryBudget)
 MemoryBudget)
(or(not Evictor)
 Derivative_Evictor_MemoryBudget)
(or(not MemoryBudget)
 Derivative_Evictor_MemoryBudget)
(or(not Derivative_Evictor_CriticalEviction)
 Evictor)
(or(not Derivative_Evictor_CriticalEviction)
 CriticalEviction)
(or(not Evictor)
 Derivative_Evictor_CriticalEviction)
(or(not CriticalEviction)
 Derivative_Evictor_CriticalEviction)
(or(not Derivative_Evictor_EvictorDaemon)
 Evictor)
(or(not Derivative_Evictor_EvictorDaemon)
 EvictorDaemon)
(or(not Evictor)
 Derivative_Evictor_EvictorDaemon)
(or(not EvictorDaemon)
 Derivative_Evictor_EvictorDaemon)
(or(not Derivative_Latches_FileHandleCache)
 Latches)
(or(not Derivative_Latches_FileHandleCache)
 FileHandleCache)
(or(not Latches)
 Derivative_Latches_FileHandleCache)
(or(not FileHandleCache)
 Derivative_Latches_FileHandleCache)
(or(not Derivative_LoggingSevere_EnvironmentLocking)
 LoggingSevere)
(or(not Derivative_LoggingSevere_EnvironmentLocking)
 EnvironmentLocking)
(or(not LoggingSevere)
 Derivative_LoggingSevere_EnvironmentLocking)
(or(not EnvironmentLocking)
 Derivative_LoggingSevere_EnvironmentLocking)
(or(not Derivative_LoggingFinest_LoggingBase)
 LoggingBase)
(or(not Derivative_LoggingFinest_LoggingBase)
 LoggingFinest)
(or(not LoggingBase)
 Derivative_LoggingFinest_LoggingBase)
(or(not LoggingFinest)
 Derivative_LoggingFinest_LoggingBase)
(or(not Derivative_LoggingFiner_LoggingBase)
 LoggingBase)
(or(not Derivative_LoggingFiner_LoggingBase)
 LoggingFiner)
(or(not LoggingBase)
 Derivative_LoggingFiner_LoggingBase)
(or(not LoggingFiner)
 Derivative_LoggingFiner_LoggingBase)
(or(not Derivative_LoggingFine_LoggingBase)
 LoggingBase)
(or(not Derivative_LoggingFine_LoggingBase)
 LoggingFine)
(or(not LoggingBase)
 Derivative_LoggingFine_LoggingBase)
(or(not LoggingFine)
 Derivative_LoggingFine_LoggingBase)
(or(not Derivative_LoggingSevere_LoggingBase)
 LoggingBase)
(or(not Derivative_LoggingSevere_LoggingBase)
 LoggingSevere)
(or(not LoggingBase)
 Derivative_LoggingSevere_LoggingBase)
(or(not LoggingSevere)
 Derivative_LoggingSevere_LoggingBase)
(or(not Derivative_LoggingRecovery_LoggingBase)
 LoggingBase)
(or(not Derivative_LoggingRecovery_LoggingBase)
 LoggingRecovery)
(or(not LoggingBase)
 Derivative_LoggingRecovery_LoggingBase)
(or(not LoggingRecovery)
 Derivative_LoggingRecovery_LoggingBase)
(or(not Derivative_LoggingCleaner_LoggingBase)
 LoggingCleaner)
(or(not Derivative_LoggingCleaner_LoggingBase)
 LoggingBase)
(or(not LoggingCleaner)
 Derivative_LoggingCleaner_LoggingBase)
(or(not LoggingBase)
 Derivative_LoggingCleaner_LoggingBase)
(or(not Derivative_LoggingFileHandler_LoggingBase)
 LoggingBase)
(or(not Derivative_LoggingFileHandler_LoggingBase)
 LoggingFileHandler)
(or(not LoggingBase)
 Derivative_LoggingFileHandler_LoggingBase)
(or(not LoggingFileHandler)
 Derivative_LoggingFileHandler_LoggingBase)
(or(not Derivative_LoggingDbLogHandler_LoggingBase)
 LoggingBase)
(or(not Derivative_LoggingDbLogHandler_LoggingBase)
 LoggingDbLogHandler)
(or(not LoggingBase)
 Derivative_LoggingDbLogHandler_LoggingBase)
(or(not LoggingDbLogHandler)
 Derivative_LoggingDbLogHandler_LoggingBase)
(or(not Derivative_LoggingConsoleHandler_LoggingBase)
 LoggingBase)
(or(not Derivative_LoggingConsoleHandler_LoggingBase)
 LoggingConsoleHandler)
(or(not LoggingBase)
 Derivative_LoggingConsoleHandler_LoggingBase)
(or(not LoggingConsoleHandler)
 Derivative_LoggingConsoleHandler_LoggingBase)))
)